etc/upTests/_matrixes/setMinSizeNested2/0001.eprime.solution
language ESSENCE' 1.0

letting m_SetExplicitVarSize_tuple2 be
        [[[10, 10, 10; int(6..8)],
          [10, 10, 10; int(6..8)],
          [10, 10, 10; int(6..8)]; int(1..3)],
         [[10, 10, 10; int(6..8)],
          [10, 10, 10; int(6..8)],
          [10, 10, 10; int(6..8)]; int(1..3)]; int(4, 5)]
letting m_SetExplicitVarSize_tuple1 be
        [[true, false, false; int(1..3)], [true, false, false; int(1..3)]; int(4, 5)]

